
Gurobi 11.0.1 (win64) logging started Sun Mar 17 07:06:27 2024

Set parameter LogFile to value "res/logfile/reblock115log.txt"
Gurobi Optimizer version 11.0.1 build v11.0.1rc0 (win64 - Windows 11.0 (22621.2))

CPU model: AMD Ryzen Threadripper PRO 5975WX 32-Cores, instruction set [SSE2|AVX|AVX2]
Thread count: 32 physical cores, 64 logical processors, using up to 10 threads

Optimize a model with 4735 rows, 1150 columns and 13724 nonzeros
Model fingerprint: 0x05b63bb3
Variable types: 0 continuous, 1150 integer (1150 binary)
Coefficient statistics:
  Matrix range     [1e+00, 3e+03]
  Objective range  [2e+01, 6e+05]
  Bounds range     [1e+00, 1e+00]
  RHS range        [2e+04, 2e+04]
Found heuristic solution: objective -807314.0085
Found heuristic solution: objective -2141624.738
Presolve removed 782 rows and 88 columns
Presolve time: 0.05s
Presolved: 3953 rows, 1062 columns, 9934 nonzeros
Variable types: 0 continuous, 1062 integer (1044 binary)
Found heuristic solution: objective -3981493.143

Root relaxation: objective -3.783149e+07, 1435 iterations, 0.05 seconds (0.08 work units)

    Nodes    |    Current Node    |     Objective Bounds      |     Work
 Expl Unexpl |  Obj  Depth IntInf | Incumbent    BestBd   Gap | It/Node Time

     0     0 -3.783e+07    0  814 -3981493.1 -3.783e+07   850%     -    0s
H    0     0                    -5844661.652 -3.783e+07   547%     -    0s
H    0     0                    -8664066.079 -3.783e+07   337%     -    0s
     0     0 -3.764e+07    0  781 -8664066.1 -3.764e+07   334%     -    0s
H    0     0                    -1.16457e+07 -3.764e+07   223%     -    0s
     0     0 -3.764e+07    0  796 -1.165e+07 -3.764e+07   223%     -    0s
     0     0 -3.764e+07    0  796 -1.165e+07 -3.764e+07   223%     -    0s
     0     0 -3.761e+07    0  759 -1.165e+07 -3.761e+07   223%     -    0s
H    0     0                    -1.44252e+07 -3.761e+07   161%     -    0s
H    0     0                    -1.91576e+07 -3.761e+07  96.3%     -    0s
     0     0 -3.761e+07    0  779 -1.916e+07 -3.761e+07  96.3%     -    0s
     0     0 -3.761e+07    0  777 -1.916e+07 -3.761e+07  96.3%     -    0s
H    0     0                    -3.54979e+07 -3.756e+07  5.81%     -    1s
     0     0 -3.755e+07    0  781 -3.550e+07 -3.755e+07  5.78%     -    1s
H    0     0                    -3.54988e+07 -3.755e+07  5.78%     -    1s
H    0     0                    -3.58876e+07 -3.755e+07  4.64%     -    1s
     0     0 -3.755e+07    0  778 -3.589e+07 -3.755e+07  4.62%     -    1s
     0     0 -3.755e+07    0  778 -3.589e+07 -3.755e+07  4.62%     -    1s
     0     0 -3.755e+07    0  778 -3.589e+07 -3.755e+07  4.62%     -    1s
H    0     0                    -3.62143e+07 -3.753e+07  3.63%     -    1s
     0     0 -3.753e+07    0  732 -3.621e+07 -3.753e+07  3.62%     -    1s
     0     0 -3.752e+07    0  732 -3.621e+07 -3.752e+07  3.62%     -    1s
     0     0 -3.752e+07    0  732 -3.621e+07 -3.752e+07  3.61%     -    1s
     0     0 -3.751e+07    0  725 -3.621e+07 -3.751e+07  3.58%     -    1s
     0     0 -3.751e+07    0  725 -3.621e+07 -3.751e+07  3.58%     -    1s
H    0     0                    -3.62641e+07 -3.751e+07  3.44%     -    2s
H    0     0                    -3.65357e+07 -3.751e+07  2.67%     -    2s
     0     0 -3.751e+07    0  782 -3.654e+07 -3.751e+07  2.67%     -    2s
     0     0 -3.751e+07    0  778 -3.654e+07 -3.751e+07  2.67%     -    2s
H    0     0                    -3.65363e+07 -3.751e+07  2.67%     -    2s
H    0     0                    -3.65515e+07 -3.751e+07  2.62%     -    2s
     0     0 -3.751e+07    0  757 -3.655e+07 -3.751e+07  2.62%     -    3s
H    0     0                    -3.65625e+07 -3.751e+07  2.59%     -    3s
     0     0 -3.751e+07    0  730 -3.656e+07 -3.751e+07  2.59%     -    3s
     0     0 -3.751e+07    0  730 -3.656e+07 -3.751e+07  2.59%     -    3s
     0     0 -3.751e+07    0  730 -3.656e+07 -3.751e+07  2.59%     -    3s
     0     0 -3.751e+07    0  753 -3.656e+07 -3.751e+07  2.59%     -    3s
H    0     0                    -3.65714e+07 -3.751e+07  2.57%     -    3s
     0     0 -3.751e+07    0  735 -3.657e+07 -3.751e+07  2.57%     -    3s
     0     0 -3.751e+07    0  734 -3.657e+07 -3.751e+07  2.57%     -    3s
     0     0 -3.751e+07    0  724 -3.657e+07 -3.751e+07  2.57%     -    3s
H    0     0                    -3.65908e+07 -3.751e+07  2.51%     -    3s
     0     0 -3.751e+07    0  724 -3.659e+07 -3.751e+07  2.51%     -    3s
H    0     0                    -3.65916e+07 -3.751e+07  2.50%     -    4s
     0     0 -3.750e+07    0  719 -3.659e+07 -3.750e+07  2.49%     -    4s
     0     0 -3.750e+07    0  719 -3.659e+07 -3.750e+07  2.49%     -    4s
     0     2 -3.750e+07    0  719 -3.659e+07 -3.750e+07  2.49%     -    4s
H   39    44                    -3.66104e+07 -3.733e+07  1.97%   165    4s
H   45    54                    -3.66268e+07 -3.733e+07  1.92%   165    5s
H   46    54                    -3.67151e+07 -3.733e+07  1.68%   164    5s
H  674   592                    -3.67219e+07 -3.728e+07  1.51%  41.9    5s
H 1014   763                    -3.67231e+07 -3.719e+07  1.27%  37.1    6s
H 1017   753                    -3.67376e+07 -3.719e+07  1.23%  37.1    6s
H 1024   700                    -3.67742e+07 -3.719e+07  1.13%  37.0    7s
H 1028   693                    -3.67804e+07 -3.719e+07  1.12%  36.9    7s
H 2127  1228                    -3.67889e+07 -3.709e+07  0.83%  33.4    8s
  2714  1501 -3.700e+07   12  676 -3.679e+07 -3.708e+07  0.78%  32.9   10s
  6223  2414     cutoff   38      -3.679e+07 -3.703e+07  0.65%  30.2   15s
H15200  6334                    -3.67970e+07 -3.698e+07  0.51%  28.5   20s
 30426 13049 -3.685e+07   32   68 -3.680e+07 -3.696e+07  0.44%  28.0   25s
 32914 14023 -3.693e+07   36   64 -3.680e+07 -3.696e+07  0.43%  27.9   30s
 48553 19180 -3.689e+07   37   41 -3.680e+07 -3.694e+07  0.40%  27.8   35s
 59427 23159 -3.690e+07   33   82 -3.680e+07 -3.694e+07  0.38%  27.7   40s
 73432 27282 -3.681e+07   40   70 -3.680e+07 -3.693e+07  0.36%  27.7   45s
 85620 30880 -3.690e+07   39   46 -3.680e+07 -3.693e+07  0.35%  27.7   50s
 99242 34475     cutoff   37      -3.680e+07 -3.692e+07  0.34%  27.8   56s
H99339 34441                    -3.67981e+07 -3.692e+07  0.33%  27.8   56s
 105680 36288 -3.687e+07   33   94 -3.680e+07 -3.692e+07  0.33%  27.7   60s
 117862 39537 -3.688e+07   28   89 -3.680e+07 -3.692e+07  0.32%  27.7   65s
 128900 42030 -3.690e+07   31  119 -3.680e+07 -3.691e+07  0.31%  27.7   70s
 141407 45151 -3.686e+07   39   81 -3.680e+07 -3.691e+07  0.30%  27.7   75s
 148673 46919 -3.684e+07   40   66 -3.680e+07 -3.691e+07  0.30%  27.7   80s
 160051 49392 -3.684e+07   34  147 -3.680e+07 -3.691e+07  0.29%  27.7   85s
 169449 51383 -3.684e+07   38   83 -3.680e+07 -3.690e+07  0.29%  27.7   90s
 180455 53576 -3.687e+07   35   72 -3.680e+07 -3.690e+07  0.28%  27.7   95s
 191395 55611 -3.685e+07   44   40 -3.680e+07 -3.690e+07  0.28%  27.7  100s
 200507 57295     cutoff   40      -3.680e+07 -3.690e+07  0.27%  27.7  105s
 211163 59427 -3.682e+07   36   55 -3.680e+07 -3.690e+07  0.27%  27.7  110s
 222400 61246 infeasible   34      -3.680e+07 -3.690e+07  0.27%  27.7  115s
 229808 62269 -3.684e+07   46   56 -3.680e+07 -3.689e+07  0.26%  27.7  120s
 237796 63987 infeasible   39      -3.680e+07 -3.689e+07  0.26%  27.7  125s
 248787 65718 -3.682e+07   47   30 -3.680e+07 -3.689e+07  0.26%  27.7  130s
 258106 67140 -3.682e+07   42   39 -3.680e+07 -3.689e+07  0.25%  27.6  135s
 267260 68367 -3.686e+07   40   96 -3.680e+07 -3.689e+07  0.25%  27.6  140s
 278355 69647 -3.682e+07   33   89 -3.680e+07 -3.689e+07  0.25%  27.6  145s
 287748 70803 -3.682e+07   43   30 -3.680e+07 -3.689e+07  0.24%  27.6  150s
 297156 71876 -3.682e+07   34   81 -3.680e+07 -3.689e+07  0.24%  27.6  155s
 306945 72820 -3.683e+07   43   47 -3.680e+07 -3.688e+07  0.24%  27.6  160s
 317661 73875     cutoff   43      -3.680e+07 -3.688e+07  0.23%  27.6  165s
 328590 75005 -3.687e+07   30   63 -3.680e+07 -3.688e+07  0.23%  27.6  170s
 339459 76020 -3.684e+07   36   82 -3.680e+07 -3.688e+07  0.23%  27.6  175s
 349247 76922     cutoff   27      -3.680e+07 -3.688e+07  0.22%  27.6  180s
 360488 77665     cutoff   37      -3.680e+07 -3.688e+07  0.22%  27.6  185s
 371182 78482     cutoff   35      -3.680e+07 -3.688e+07  0.22%  27.5  190s
 382097 79074 infeasible   42      -3.680e+07 -3.688e+07  0.21%  27.5  195s
 391491 79590 -3.682e+07   39   47 -3.680e+07 -3.688e+07  0.21%  27.5  200s
 402567 80244 -3.682e+07   36   76 -3.680e+07 -3.688e+07  0.21%  27.5  205s
 413857 80684 -3.683e+07   30  110 -3.680e+07 -3.687e+07  0.21%  27.5  210s
 424690 81101 -3.686e+07   40   66 -3.680e+07 -3.687e+07  0.20%  27.5  215s
 435953 81390 -3.682e+07   39   51 -3.680e+07 -3.687e+07  0.20%  27.5  220s
 446702 81632 -3.685e+07   35  127 -3.680e+07 -3.687e+07  0.20%  27.5  225s
 458865 81850 infeasible   35      -3.680e+07 -3.687e+07  0.19%  27.4  230s
 471968 82287 -3.685e+07   23  102 -3.680e+07 -3.687e+07  0.19%  27.4  235s
 484467 82472     cutoff   49      -3.680e+07 -3.687e+07  0.19%  27.4  240s
 497283 82619 infeasible   39      -3.680e+07 -3.687e+07  0.19%  27.3  246s
 506750 82676 -3.681e+07   47   28 -3.680e+07 -3.687e+07  0.18%  27.3  250s
 517600 82716 -3.684e+07   41   48 -3.680e+07 -3.686e+07  0.18%  27.3  255s
 530304 82574 -3.686e+07   57   30 -3.680e+07 -3.686e+07  0.18%  27.3  260s
 541657 82506 -3.685e+07   37   82 -3.680e+07 -3.686e+07  0.18%  27.2  265s
 552183 82361 infeasible   46      -3.680e+07 -3.686e+07  0.17%  27.2  270s
 559134 82076 -3.680e+07   29   89 -3.680e+07 -3.686e+07  0.17%  27.2  276s
 572184 81929     cutoff   43      -3.680e+07 -3.686e+07  0.17%  27.1  280s
 583821 81728 infeasible   64      -3.680e+07 -3.686e+07  0.17%  27.1  286s
 592434 81541     cutoff   50      -3.680e+07 -3.686e+07  0.16%  27.1  290s
 606101 81088 -3.684e+07   40   45 -3.680e+07 -3.686e+07  0.16%  27.1  295s
 617845 80559 -3.683e+07   36   68 -3.680e+07 -3.686e+07  0.16%  27.0  300s
 630840 79797 -3.681e+07   54   26 -3.680e+07 -3.686e+07  0.16%  27.0  305s
 641908 79104 -3.684e+07   41   41 -3.680e+07 -3.685e+07  0.15%  27.0  310s
 654571 78273 infeasible   50      -3.680e+07 -3.685e+07  0.15%  26.9  315s
 667097 77295 infeasible   55      -3.680e+07 -3.685e+07  0.15%  26.9  320s
 678378 76245 -3.682e+07   41  112 -3.680e+07 -3.685e+07  0.15%  26.8  325s
 688589 75220 infeasible   36      -3.680e+07 -3.685e+07  0.14%  26.8  330s
 698695 74059 infeasible   61      -3.680e+07 -3.685e+07  0.14%  26.8  335s
 708570 72785 -3.681e+07   33   92 -3.680e+07 -3.685e+07  0.14%  26.7  340s
 721392 71343     cutoff   42      -3.680e+07 -3.685e+07  0.14%  26.7  346s
 728761 70264 infeasible   33      -3.680e+07 -3.685e+07  0.13%  26.7  350s
 741218 68571 -3.682e+07   53   27 -3.680e+07 -3.685e+07  0.13%  26.6  355s
 752877 66658 infeasible   46      -3.680e+07 -3.684e+07  0.13%  26.6  360s
 764366 64813 -3.682e+07   41   75 -3.680e+07 -3.684e+07  0.12%  26.5  365s
 774616 63188 -3.682e+07   30   93 -3.680e+07 -3.684e+07  0.12%  26.5  370s
 786713 61041 -3.683e+07   59   35 -3.680e+07 -3.684e+07  0.12%  26.4  375s
*792396 59839              75    -3.67995e+07 -3.684e+07  0.11%  26.4  377s
 797159 58796 infeasible   40      -3.680e+07 -3.684e+07  0.11%  26.3  380s
 807600 56419 infeasible   38      -3.680e+07 -3.684e+07  0.11%  26.3  385s
 819017 53827 -3.683e+07   37   91 -3.680e+07 -3.684e+07  0.11%  26.2  390s
 830364 51280     cutoff   35      -3.680e+07 -3.684e+07  0.10%  26.2  395s
 839559 48755 -3.683e+07   43   55 -3.680e+07 -3.684e+07  0.10%  26.1  400s
 851524 45330     cutoff   44      -3.680e+07 -3.683e+07  0.10%  26.0  405s
 861885 42885 infeasible   46      -3.680e+07 -3.683e+07  0.09%  26.0  411s
H861892 42634                    -3.68006e+07 -3.683e+07  0.09%  26.0  411s
 869335 39742 -3.680e+07   35   73 -3.680e+07 -3.683e+07  0.09%  25.9  415s
 878294 36405     cutoff   36      -3.680e+07 -3.683e+07  0.08%  25.9  420s
 887829 32853 -3.682e+07   61   30 -3.680e+07 -3.683e+07  0.08%  25.8  425s
 898060 28737 -3.682e+07   43   64 -3.680e+07 -3.683e+07  0.07%  25.7  430s
 908488 24015     cutoff   33      -3.680e+07 -3.683e+07  0.07%  25.7  436s
 917663 19387     cutoff   47      -3.680e+07 -3.682e+07  0.06%  25.6  440s
 923780 15973 -3.681e+07   52   20 -3.680e+07 -3.682e+07  0.06%  25.5  445s
 931836 11383 infeasible   39      -3.680e+07 -3.682e+07  0.05%  25.5  450s
 944365  2606 infeasible   51      -3.680e+07 -3.681e+07  0.03%  25.3  455s

Cutting planes:
  Gomory: 7
  Cover: 16
  Implied bound: 2
  MIR: 1
  Flow cover: 3
  GUB cover: 3
  Inf proof: 24
  Zero half: 6
  Mod-K: 2
  RLT: 17
  Relax-and-lift: 17

Explored 951206 nodes (23967496 simplex iterations) in 456.75 seconds (255.69 work units)
Thread count was 10 (of 64 available processors)

Solution count 10: -3.68006e+07 -3.67995e+07 -3.67981e+07 ... -3.67219e+07

Optimal solution found (tolerance 1.00e-04)
Best objective -3.680060323316e+07, best bound -3.680145216353e+07, gap 0.0023%

User-callback calls 1912030, time in user-callback 0.48 sec
